(declare-sort sk2 0)
(declare-sort sk 0)
(declare-datatype pair ((pair2 (proj1-pair sk) (proj2-pair sk))))
(declare-datatype list2 ((nil2) (cons2 (head2 sk) (tail2 list2))))
(declare-datatype list ((nil) (cons (head pair) (tail list))))
(declare-fun zip (list2 list2) list)
(assert (forall ((y list2)) (= (zip nil2 y) nil)))
(assert
  (forall ((z sk) (x2 list2)) (= (zip (cons2 z x2) nil2) nil)))
(assert
  (forall ((z sk) (x2 list2) (x3 sk) (x4 list2))
    (= (zip (cons2 z x2) (cons2 x3 x4))
      (cons (pair2 z x3) (zip x2 x4)))))
